************************************************************************
file with basedata            : j9011_.bas
initial value random generator: 255964249
************************************************************************
projects                      :  1
jobs (incl. supersource/sink ):  92
horizon                       :  484
RESOURCES
  - renewable                 :  4   R
  - nonrenewable              :  0   N
  - doubly constrained        :  0   D
************************************************************************
PROJECT INFORMATION:
pronr.  #jobs rel.date duedate tardcost  MPM-Time
    1     90      0       64       75       64
************************************************************************
PRECEDENCE RELATIONS:
jobnr.    #modes  #successors   successors
   1        1          3           2   3   4
   2        1          3           8   9  10
   3        1          3           5  15  16
   4        1          2           7  67
   5        1          2           6  79
   6        1          3          11  12  26
   7        1          1          20
   8        1          1          39
   9        1          2          29  52
  10        1          3          13  14  17
  11        1          1          27
  12        1          2          19  73
  13        1          1          54
  14        1          3          28  51  61
  15        1          3          22  23  36
  16        1          2          18  30
  17        1          2          21  24
  18        1          3          34  43  56
  19        1          2          42  68
  20        1          2          25  48
  21        1          2          22  55
  22        1          1          57
  23        1          1          80
  24        1          3          41  46  49
  25        1          3          28  35  38
  26        1          1          47
  27        1          1          28
  28        1          2          65  70
  29        1          3          33  49  84
  30        1          3          31  32  35
  31        1          2          53  59
  32        1          1          82
  33        1          2          37  50
  34        1          1          52
  35        1          1          74
  36        1          1          39
  37        1          2          71  72
  38        1          1          40
  39        1          2          44  86
  40        1          2          53  64
  41        1          2          60  74
  42        1          1          78
  43        1          1          74
  44        1          2          45  63
  45        1          1          73
  46        1          1          87
  47        1          1          69
  48        1          2          54  66
  49        1          1          58
  50        1          1          65
  51        1          2          75  76
  52        1          1          91
  53        1          1          54
  54        1          1          80
  55        1          2          59  63
  56        1          1          62
  57        1          2          82  84
  58        1          1          65
  59        1          1          72
  60        1          2          63  69
  61        1          1          82
  62        1          1          70
  63        1          1          77
  64        1          1          87
  65        1          2          71  90
  66        1          1          84
  67        1          1          86
  68        1          1          81
  69        1          1          89
  70        1          1          77
  71        1          1          85
  72        1          1          76
  73        1          1          85
  74        1          1          85
  75        1          1          79
  76        1          1          79
  77        1          1          83
  78        1          1          91
  79        1          1          81
  80        1          1          83
  81        1          1          88
  82        1          1          88
  83        1          1          90
  84        1          1          88
  85        1          1          89
  86        1          1          91
  87        1          1          89
  88        1          1          90
  89        1          1          92
  90        1          1          92
  91        1          1          92
  92        1          0        
************************************************************************
REQUESTS/DURATIONS:
jobnr. mode duration  R 1  R 2  R 3  R 4
------------------------------------------------------------------------
  1      1     0       0    0    0    0
  2      1     5       1    7    0    0
  3      1     2       3    7    3    0
  4      1     6       8    0    6    2
  5      1     4       1    3    0    6
  6      1     2       3    3    8    9
  7      1     5       0    3    0    5
  8      1     2       1    8    9    7
  9      1     6       4    0    4    9
 10      1     7       5    0    7    0
 11      1     9       0    5    9    1
 12      1     1       1    9    5    9
 13      1    10       7    0    0    2
 14      1     9       0    0    9    6
 15      1     7       0    7    3    8
 16      1     2       0    6    3    0
 17      1    10      10    0    8    3
 18      1     5       2    6    5    4
 19      1     2       8    3    3    6
 20      1     6       2    0    1    8
 21      1     5       8    3    0    3
 22      1     8       3    6    7    4
 23      1     8       0    3   10    0
 24      1     5       3   10    3    6
 25      1    10      10    5    0    8
 26      1     6       2    9    0    7
 27      1     3       0    6    7    5
 28      1     7       9   10    1    4
 29      1     9       0   10    2    7
 30      1     2      10   10    9    7
 31      1     2       6   10    0    9
 32      1     3       4    4    6   10
 33      1     7       3    8    0    0
 34      1     5       8    5   10    0
 35      1     3       4    0    5    9
 36      1     8       0    3    0    3
 37      1     3       4    5   10    0
 38      1     4      10    0    1    1
 39      1     3       0    8    9    6
 40      1     2       3    3    3    4
 41      1     2       3    8    5   10
 42      1     4       0    4    5    6
 43      1     4       0    8    2    1
 44      1     5       9    7    8    8
 45      1     8       7    0    9    2
 46      1     8       3    0    2    2
 47      1     9       2    3    0    8
 48      1     9       5    0    4    0
 49      1     9      10    2    0    0
 50      1     9       8    0    5    2
 51      1     4      10    5    0    0
 52      1     5       7    8    0    8
 53      1     4       8    0    3    0
 54      1     5       8    4    2    0
 55      1     5       3    0    4    9
 56      1     1       0    0    2   10
 57      1     8       8    8    0    6
 58      1     2       8    8    7    4
 59      1     1       1    3    0    3
 60      1     1       0    9    5    8
 61      1     1       0    1    7    0
 62      1    10       6    1    8    4
 63      1    10       7    2    0    5
 64      1     9       0    6    8    8
 65      1    10       9    2    6    9
 66      1     8       6    2    8    1
 67      1     4       0    2    9    2
 68      1     7       0    3    0    6
 69      1     8       8    1    8    0
 70      1     4       0    0    0    3
 71      1     8       1    5    1    6
 72      1     6       4    0    9    8
 73      1     8       6    4    2    0
 74      1    10       9    2    7    0
 75      1     6       6    2    4    6
 76      1     1       0    9    2    0
 77      1     9       8    4    3    6
 78      1     3       0    2   10    2
 79      1     7       6    1    4    0
 80      1     3       8    8   10    9
 81      1     1       6   10    5    7
 82      1     9      10    1    0    0
 83      1     1       0    1    5    0
 84      1     2       0    0    9    9
 85      1     6       4    7    5    5
 86      1     2       5    5    0    1
 87      1    10       9    0   10    2
 88      1     1       8    2    2    0
 89      1     2      10    2    9   10
 90      1     2       9    0    9    3
 91      1    10       0    3   10    0
 92      1     0       0    0    0    0
************************************************************************
RESOURCEAVAILABILITIES:
  R 1  R 2  R 3  R 4
   60   39   53   49
************************************************************************
